This is Ipopt version 3.11.9, running with linear solver mumps.
NOTE: Other linear solvers might be more efficient (see Ipopt documentation).

Number of nonzeros in equality constraint Jacobian...:        0
Number of nonzeros in inequality constraint Jacobian.:      541
Number of nonzeros in Lagrangian Hessian.............:        0

Total number of variables............................:      541
                     variables with only lower bounds:        0
                variables with lower and upper bounds:      541
                     variables with only upper bounds:        0
Total number of equality constraints.................:        0
Total number of inequality constraints...............:        1
        inequality constraints with only lower bounds:        0
   inequality constraints with lower and upper bounds:        1
        inequality constraints with only upper bounds:        0

Exception of type: IpoptException in file "Unknown File" at line -1:
 Exception message: Unknown Exception caught in Ipopt
